

(declare-sort |dff_s| 0)
(declare-fun |dff_is| (|dff_s|) Bool)
(declare-fun |dff#0| (|dff_s|) Bool) 


(define-fun |dff_n CK| ((state |dff_s|)) Bool (|dff#0| state))
(declare-fun |dff#1| (|dff_s|) Bool) 


(define-fun |dff_n D| ((state |dff_s|)) Bool (|dff#1| state))
(define-fun |dff#2| ((state |dff_s|)) (_ BitVec 1) (bvnot (ite (|dff#0| state) #b1 #b0))) 
(define-fun |dff#3| ((state |dff_s|)) (_ BitVec 1) (ite (|dff#1| state) (|dff#2| state) #b0)) 
(define-fun |dff#4| ((state |dff_s|)) (_ BitVec 1) (ite (= ((_ extract 0 0) (|dff#3| state)) #b1) #b0 (ite (|dff#0| state) #b1 #b0))) 
(define-fun |dff#5| ((state |dff_s|)) (_ BitVec 1) (bvnot (|dff#4| state))) 

(define-fun |dff_n Q| ((state |dff_s|)) Bool (= ((_ extract 0 0) (|dff#5| state)) #b1))
(define-fun |dff_a| ((state |dff_s|)) Bool true)
(define-fun |dff_u| ((state |dff_s|)) Bool true)
(define-fun |dff_i| ((state |dff_s|)) Bool true)
(define-fun |dff_h| ((state |dff_s|)) Bool true)
(define-fun |dff_t| ((state |dff_s|) (next_state |dff_s|)) Bool true) 

(declare-sort |s400_s| 0)
(declare-fun |s400_is| (|s400_s|) Bool)
(declare-fun |s400#0| (|s400_s|) Bool) 


(define-fun |s400_n CK| ((state |s400_s|)) Bool (|s400#0| state))
(declare-fun |s400#1| (|s400_s|) Bool) 


(define-fun |s400_n CLR| ((state |s400_s|)) Bool (|s400#1| state))
(declare-fun |s400#2| (|s400_s|) Bool) 


(define-fun |s400_n FM| ((state |s400_s|)) Bool (|s400#2| state))
(declare-fun |s400#3| (|s400_s|) Bool) 


(define-fun |s400_n GND| ((state |s400_s|)) Bool (|s400#3| state))


(declare-fun |s400#4| (|s400_s|) Bool) 
(declare-fun |s400_h DFF_7| (|s400_s|) |dff_s|)

(define-fun |s400_n GRN1| ((state |s400_s|)) Bool (|s400#4| state))


(declare-fun |s400#5| (|s400_s|) Bool) 
(declare-fun |s400_h DFF_6| (|s400_s|) |dff_s|)

(define-fun |s400_n GRN2| ((state |s400_s|)) Bool (|s400#5| state))


(declare-fun |s400#6| (|s400_s|) Bool) 
(declare-fun |s400_h DFF_5| (|s400_s|) |dff_s|)

(define-fun |s400_n RED1| ((state |s400_s|)) Bool (|s400#6| state))


(declare-fun |s400#7| (|s400_s|) Bool) 
(declare-fun |s400_h DFF_4| (|s400_s|) |dff_s|)
(define-fun |s400#8| ((state |s400_s|)) (_ BitVec 1) (bvnot (ite (|s400#7| state) #b1 #b0))) 

(define-fun |s400_n RED2| ((state |s400_s|)) Bool (= ((_ extract 0 0) (|s400#8| state)) #b1))
(declare-fun |s400#9| (|s400_s|) Bool) 


(define-fun |s400_n TEST| ((state |s400_s|)) Bool (|s400#9| state))
(declare-fun |s400#10| (|s400_s|) Bool) 


(define-fun |s400_n VDD| ((state |s400_s|)) Bool (|s400#10| state))


(declare-fun |s400#11| (|s400_s|) Bool) 
(declare-fun |s400_h DFF_3| (|s400_s|) |dff_s|)
(define-fun |s400#12| ((state |s400_s|)) (_ BitVec 1) (bvnot (ite (|s400#11| state) #b1 #b0))) 

(define-fun |s400_n YLW1| ((state |s400_s|)) Bool (= ((_ extract 0 0) (|s400#12| state)) #b1))


(declare-fun |s400#13| (|s400_s|) Bool) 
(declare-fun |s400_h DFF_2| (|s400_s|) |dff_s|)

(define-fun |s400_n YLW2| ((state |s400_s|)) Bool (|s400#13| state))


(declare-fun |s400#14| (|s400_s|) Bool) 
(declare-fun |s400_h DFF_0| (|s400_s|) |dff_s|)


(declare-fun |s400#15| (|s400_s|) Bool) 
(declare-fun |s400_h DFF_1| (|s400_s|) |dff_s|)


(declare-fun |s400#16| (|s400_s|) Bool) 
(declare-fun |s400_h DFF_10| (|s400_s|) |dff_s|)


(declare-fun |s400#17| (|s400_s|) Bool) 
(declare-fun |s400_h DFF_11| (|s400_s|) |dff_s|)


(declare-fun |s400#18| (|s400_s|) Bool) 
(declare-fun |s400_h DFF_12| (|s400_s|) |dff_s|)


(declare-fun |s400#19| (|s400_s|) Bool) 
(declare-fun |s400_h DFF_13| (|s400_s|) |dff_s|)


(declare-fun |s400#20| (|s400_s|) Bool) 
(declare-fun |s400_h DFF_14| (|s400_s|) |dff_s|)


(declare-fun |s400#21| (|s400_s|) Bool) 
(declare-fun |s400_h DFF_15| (|s400_s|) |dff_s|)


(declare-fun |s400#22| (|s400_s|) Bool) 
(declare-fun |s400_h DFF_16| (|s400_s|) |dff_s|)


(declare-fun |s400#23| (|s400_s|) Bool) 
(declare-fun |s400_h DFF_17| (|s400_s|) |dff_s|)


(declare-fun |s400#24| (|s400_s|) Bool) 
(declare-fun |s400_h DFF_18| (|s400_s|) |dff_s|)


(declare-fun |s400#25| (|s400_s|) Bool) 
(declare-fun |s400_h DFF_19| (|s400_s|) |dff_s|)


(declare-fun |s400#26| (|s400_s|) Bool) 
(declare-fun |s400_h DFF_20| (|s400_s|) |dff_s|)


(declare-fun |s400#27| (|s400_s|) Bool) 
(declare-fun |s400_h DFF_8| (|s400_s|) |dff_s|)


(declare-fun |s400#28| (|s400_s|) Bool) 
(declare-fun |s400_h DFF_9| (|s400_s|) |dff_s|)
(define-fun |s400#29| ((state |s400_s|)) (_ BitVec 1) (bvnot (ite (|s400#1| state) #b1 #b0))) 
(define-fun |s400#30| ((state |s400_s|)) (_ BitVec 1) (bvnot (ite (|s400#2| state) #b1 #b0))) 
(define-fun |s400#31| ((state |s400_s|)) (_ BitVec 1) (bvnot (ite (|s400#15| state) #b1 #b0))) 
(define-fun |s400#32| ((state |s400_s|)) (_ BitVec 1) (bvor (|s400#30| state) (|s400#31| state))) 
(define-fun |s400#33| ((state |s400_s|)) (_ BitVec 1) (bvor (ite (|s400#2| state) #b1 #b0) (ite (|s400#15| state) #b1 #b0))) 
(define-fun |s400#34| ((state |s400_s|)) (_ BitVec 1) (bvand (|s400#32| state) (|s400#33| state))) 
(define-fun |s400#35| ((state |s400_s|)) (_ BitVec 1) (bvand (|s400#29| state) (|s400#34| state))) 
(define-fun |s400#36| ((state |s400_s|)) (_ BitVec 1) (bvnot (ite (|s400#27| state) #b1 #b0))) 
(define-fun |s400#37| ((state |s400_s|)) (_ BitVec 1) (bvand (|s400#29| state) (|s400#36| state))) 
(define-fun |s400#38| ((state |s400_s|)) (_ BitVec 1) (bvnot (ite (|s400#16| state) #b1 #b0))) 
(define-fun |s400#39| ((state |s400_s|)) (_ BitVec 1) (bvand (|s400#37| state) (|s400#38| state))) 
(define-fun |s400#40| ((state |s400_s|)) (_ BitVec 1) (bvand (|s400#39| state) (ite (|s400#17| state) #b1 #b0))) 
(define-fun |s400#41| ((state |s400_s|)) (_ BitVec 1) (bvnot (|s400#40| state))) 
(define-fun |s400#42| ((state |s400_s|)) (_ BitVec 1) (bvnot (ite (|s400#18| state) #b1 #b0))) 
(define-fun |s400#43| ((state |s400_s|)) (_ BitVec 1) (bvor (|s400#41| state) (|s400#42| state))) 
(define-fun |s400#44| ((state |s400_s|)) (_ BitVec 1) (bvnot (|s400#43| state))) 
(define-fun |s400#45| ((state |s400_s|)) (_ BitVec 1) (bvor (ite (|s400#1| state) #b1 #b0) (|s400#36| state))) 
(define-fun |s400#46| ((state |s400_s|)) (_ BitVec 1) (bvnot (|s400#45| state))) 
(define-fun |s400#47| ((state |s400_s|)) (_ BitVec 1) (bvnot (ite (|s400#17| state) #b1 #b0))) 
(define-fun |s400#48| ((state |s400_s|)) (_ BitVec 1) (bvand (|s400#47| state) (ite (|s400#18| state) #b1 #b0))) 
(define-fun |s400#49| ((state |s400_s|)) (_ BitVec 1) (bvnot (|s400#48| state))) 
(define-fun |s400#50| ((state |s400_s|)) (_ BitVec 1) (bvor (|s400#49| state) (ite (|s400#15| state) #b1 #b0))) 
(define-fun |s400#51| ((state |s400_s|)) (_ BitVec 1) (bvor (|s400#50| state) (ite (|s400#28| state) #b1 #b0))) 
(define-fun |s400#52| ((state |s400_s|)) (_ BitVec 1) (bvor (|s400#51| state) (|s400#38| state))) 
(define-fun |s400#53| ((state |s400_s|)) (_ BitVec 1) (bvand (|s400#46| state) (|s400#52| state))) 
(define-fun |s400#54| ((state |s400_s|)) (_ BitVec 1) (bvnot (|s400#53| state))) 
(define-fun |s400#55| ((state |s400_s|)) (_ BitVec 1) (bvor (ite (|s400#1| state) #b1 #b0) (|s400#31| state))) 
(define-fun |s400#56| ((state |s400_s|)) (_ BitVec 1) (bvor (|s400#55| state) (|s400#38| state))) 
(define-fun |s400#57| ((state |s400_s|)) (_ BitVec 1) (bvor (|s400#56| state) (ite (|s400#17| state) #b1 #b0))) 
(define-fun |s400#58| ((state |s400_s|)) (_ BitVec 1) (bvnot (|s400#57| state))) 
(define-fun |s400#59| ((state |s400_s|)) (_ BitVec 1) (bvand (|s400#58| state) (|s400#42| state))) 
(define-fun |s400#60| ((state |s400_s|)) (_ BitVec 1) (bvnot (|s400#59| state))) 
(define-fun |s400#61| ((state |s400_s|)) (_ BitVec 1) (bvand (|s400#54| state) (|s400#60| state))) 
(define-fun |s400#62| ((state |s400_s|)) (_ BitVec 1) (bvnot (ite (|s400#28| state) #b1 #b0))) 
(define-fun |s400#63| ((state |s400_s|)) (_ BitVec 1) (bvor (ite (|s400#16| state) #b1 #b0) (|s400#62| state))) 
(define-fun |s400#64| ((state |s400_s|)) (_ BitVec 1) (bvor (|s400#63| state) (ite (|s400#1| state) #b1 #b0))) 
(define-fun |s400#65| ((state |s400_s|)) (_ BitVec 1) (bvor (|s400#38| state) (ite (|s400#28| state) #b1 #b0))) 
(define-fun |s400#66| ((state |s400_s|)) (_ BitVec 1) (bvor (|s400#65| state) (|s400#31| state))) 
(define-fun |s400#67| ((state |s400_s|)) (_ BitVec 1) (bvor (|s400#66| state) (ite (|s400#1| state) #b1 #b0))) 
(define-fun |s400#68| ((state |s400_s|)) (_ BitVec 1) (bvand (|s400#64| state) (|s400#67| state))) 
(define-fun |s400#69| ((state |s400_s|)) (_ BitVec 1) (bvnot (|s400#68| state))) 
(define-fun |s400#70| ((state |s400_s|)) (_ BitVec 1) (bvand (|s400#69| state) (|s400#47| state))) 
(define-fun |s400#71| ((state |s400_s|)) (_ BitVec 1) (bvand (|s400#70| state) (|s400#42| state))) 
(define-fun |s400#72| ((state |s400_s|)) (_ BitVec 1) (bvnot (|s400#71| state))) 
(define-fun |s400#73| ((state |s400_s|)) (_ BitVec 1) (bvand (|s400#54| state) (|s400#72| state))) 
(define-fun |s400#74| ((state |s400_s|)) (_ BitVec 1) (bvnot (|s400#73| state))) 
(define-fun |s400#75| ((state |s400_s|)) (_ BitVec 1) (bvand (|s400#61| state) (|s400#74| state))) 
(define-fun |s400#76| ((state |s400_s|)) (_ BitVec 1) (bvnot (|s400#61| state))) 
(define-fun |s400#77| ((state |s400_s|)) (_ BitVec 1) (bvand (|s400#76| state) (|s400#74| state))) 
(define-fun |s400#78| ((state |s400_s|)) (_ BitVec 1) (bvnot (ite (|s400#20| state) #b1 #b0))) 
(define-fun |s400#79| ((state |s400_s|)) (_ BitVec 1) (bvand (|s400#77| state) (|s400#78| state))) 
(define-fun |s400#80| ((state |s400_s|)) (_ BitVec 1) (bvor (|s400#75| state) (|s400#79| state))) 
(define-fun |s400#81| ((state |s400_s|)) (_ BitVec 1) (bvnot (|s400#80| state))) 
(define-fun |s400#82| ((state |s400_s|)) (_ BitVec 1) (bvor (|s400#38| state) (ite (|s400#1| state) #b1 #b0))) 
(define-fun |s400#83| ((state |s400_s|)) (_ BitVec 1) (bvand (|s400#82| state) (|s400#45| state))) 
(define-fun |s400#84| ((state |s400_s|)) (_ BitVec 1) (bvor (ite (|s400#18| state) #b1 #b0) (ite (|s400#17| state) #b1 #b0))) 
(define-fun |s400#85| ((state |s400_s|)) (_ BitVec 1) (bvor (|s400#84| state) (|s400#62| state))) 
(define-fun |s400#86| ((state |s400_s|)) (_ BitVec 1) (bvor (|s400#85| state) (ite (|s400#1| state) #b1 #b0))) 
(define-fun |s400#87| ((state |s400_s|)) (_ BitVec 1) (bvand (|s400#83| state) (|s400#86| state))) 
(define-fun |s400#88| ((state |s400_s|)) (_ BitVec 1) (bvnot (|s400#87| state))) 
(define-fun |s400#89| ((state |s400_s|)) (_ BitVec 1) (bvand (|s400#61| state) (|s400#88| state))) 
(define-fun |s400#90| ((state |s400_s|)) (_ BitVec 1) (bvand (|s400#76| state) (|s400#88| state))) 
(define-fun |s400#91| ((state |s400_s|)) (_ BitVec 1) (bvand (|s400#90| state) (|s400#78| state))) 
(define-fun |s400#92| ((state |s400_s|)) (_ BitVec 1) (bvor (|s400#89| state) (|s400#91| state))) 
(define-fun |s400#93| ((state |s400_s|)) (_ BitVec 1) (bvnot (|s400#92| state))) 
(define-fun |s400#94| ((state |s400_s|)) (_ BitVec 1) (bvor (ite (|s400#20| state) #b1 #b0) (ite (|s400#21| state) #b1 #b0))) 
(define-fun |s400#95| ((state |s400_s|)) (_ BitVec 1) (bvor (|s400#94| state) (ite (|s400#22| state) #b1 #b0))) 
(define-fun |s400#96| ((state |s400_s|)) (_ BitVec 1) (bvnot (|s400#95| state))) 
(define-fun |s400#97| ((state |s400_s|)) (_ BitVec 1) (bvor (ite (|s400#24| state) #b1 #b0) (ite (|s400#25| state) #b1 #b0))) 
(define-fun |s400#98| ((state |s400_s|)) (_ BitVec 1) (bvor (|s400#97| state) (ite (|s400#26| state) #b1 #b0))) 
(define-fun |s400#99| ((state |s400_s|)) (_ BitVec 1) (bvnot (|s400#98| state))) 
(define-fun |s400#100| ((state |s400_s|)) (_ BitVec 1) (bvnot (ite (|s400#23| state) #b1 #b0))) 
(define-fun |s400#101| ((state |s400_s|)) (_ BitVec 1) (bvor (|s400#99| state) (|s400#100| state))) 
(define-fun |s400#102| ((state |s400_s|)) (_ BitVec 1) (bvnot (|s400#101| state))) 
(define-fun |s400#103| ((state |s400_s|)) (_ BitVec 1) (bvor (|s400#102| state) (ite (|s400#14| state) #b1 #b0))) 
(define-fun |s400#104| ((state |s400_s|)) (_ BitVec 1) (bvnot (|s400#103| state))) 
(define-fun |s400#105| ((state |s400_s|)) (_ BitVec 1) (bvor (|s400#96| state) (|s400#104| state))) 
(define-fun |s400#106| ((state |s400_s|)) (_ BitVec 1) (bvnot (ite (|s400#19| state) #b1 #b0))) 
(define-fun |s400#107| ((state |s400_s|)) (_ BitVec 1) (bvor (|s400#105| state) (|s400#106| state))) 
(define-fun |s400#108| ((state |s400_s|)) (_ BitVec 1) (bvor (|s400#107| state) (|s400#38| state))) 
(define-fun |s400#109| ((state |s400_s|)) (_ BitVec 1) (bvor (|s400#108| state) (|s400#47| state))) 
(define-fun |s400#110| ((state |s400_s|)) (_ BitVec 1) (bvor (|s400#109| state) (|s400#42| state))) 
(define-fun |s400#111| ((state |s400_s|)) (_ BitVec 1) (bvnot (|s400#110| state))) 
(define-fun |s400#112| ((state |s400_s|)) (_ BitVec 1) (bvor (|s400#111| state) (ite (|s400#28| state) #b1 #b0))) 
(define-fun |s400#113| ((state |s400_s|)) (_ BitVec 1) (bvand (|s400#111| state) (ite (|s400#28| state) #b1 #b0))) 
(define-fun |s400#114| ((state |s400_s|)) (_ BitVec 1) (bvnot (|s400#113| state))) 
(define-fun |s400#115| ((state |s400_s|)) (_ BitVec 1) (bvand (|s400#112| state) (|s400#114| state))) 
(define-fun |s400#116| ((state |s400_s|)) (_ BitVec 1) (bvnot (|s400#115| state))) 
(define-fun |s400#117| ((state |s400_s|)) (_ BitVec 1) (bvor (ite (|s400#1| state) #b1 #b0) (|s400#116| state))) 
(define-fun |s400#118| ((state |s400_s|)) (_ BitVec 1) (bvor (ite (|s400#16| state) #b1 #b0) (ite (|s400#17| state) #b1 #b0))) 
(define-fun |s400#119| ((state |s400_s|)) (_ BitVec 1) (bvor (|s400#118| state) (ite (|s400#18| state) #b1 #b0))) 
(define-fun |s400#120| ((state |s400_s|)) (_ BitVec 1) (bvnot (|s400#119| state))) 
(define-fun |s400#121| ((state |s400_s|)) (_ BitVec 1) (bvor (|s400#120| state) (|s400#107| state))) 
(define-fun |s400#122| ((state |s400_s|)) (_ BitVec 1) (bvor (|s400#121| state) (|s400#62| state))) 
(define-fun |s400#123| ((state |s400_s|)) (_ BitVec 1) (bvnot (|s400#122| state))) 
(define-fun |s400#124| ((state |s400_s|)) (_ BitVec 1) (bvor (|s400#117| state) (|s400#123| state))) 
(define-fun |s400#125| ((state |s400_s|)) (_ BitVec 1) (bvnot (|s400#124| state))) 
(define-fun |s400#126| ((state |s400_s|)) (_ BitVec 1) (bvor (ite (|s400#16| state) #b1 #b0) (ite (|s400#28| state) #b1 #b0))) 
(define-fun |s400#127| ((state |s400_s|)) (_ BitVec 1) (bvor (|s400#126| state) (ite (|s400#27| state) #b1 #b0))) 
(define-fun |s400#128| ((state |s400_s|)) (_ BitVec 1) (bvand (|s400#29| state) (|s400#127| state))) 
(define-fun |s400#129| ((state |s400_s|)) (_ BitVec 1) (bvor (|s400#42| state) (ite (|s400#17| state) #b1 #b0))) 
(define-fun |s400#130| ((state |s400_s|)) (_ BitVec 1) (bvor (|s400#129| state) (ite (|s400#16| state) #b1 #b0))) 
(define-fun |s400#131| ((state |s400_s|)) (_ BitVec 1) (bvor (|s400#130| state) (ite (|s400#27| state) #b1 #b0))) 
(define-fun |s400#132| ((state |s400_s|)) (_ BitVec 1) (bvand (|s400#128| state) (|s400#131| state))) 
(define-fun |s400#133| ((state |s400_s|)) (_ BitVec 1) (bvnot (|s400#132| state))) 
(define-fun |s400#134| ((state |s400_s|)) (_ BitVec 1) (bvand (ite (|s400#27| state) #b1 #b0) (|s400#29| state))) 
(define-fun |s400#135| ((state |s400_s|)) (_ BitVec 1) (bvand (|s400#29| state) (ite (|s400#16| state) #b1 #b0))) 
(define-fun |s400#136| ((state |s400_s|)) (_ BitVec 1) (bvor (|s400#134| state) (|s400#135| state))) 
(define-fun |s400#137| ((state |s400_s|)) (_ BitVec 1) (bvand (ite (|s400#18| state) #b1 #b0) (ite (|s400#17| state) #b1 #b0))) 
(define-fun |s400#138| ((state |s400_s|)) (_ BitVec 1) (bvand (|s400#137| state) (|s400#29| state))) 
(define-fun |s400#139| ((state |s400_s|)) (_ BitVec 1) (bvor (|s400#136| state) (|s400#138| state))) 
(define-fun |s400#140| ((state |s400_s|)) (_ BitVec 1) (bvand (|s400#42| state) (ite (|s400#28| state) #b1 #b0))) 
(define-fun |s400#141| ((state |s400_s|)) (_ BitVec 1) (bvand (|s400#140| state) (|s400#29| state))) 
(define-fun |s400#142| ((state |s400_s|)) (_ BitVec 1) (bvor (|s400#139| state) (|s400#141| state))) 
(define-fun |s400#143| ((state |s400_s|)) (_ BitVec 1) (bvnot (|s400#142| state))) 
(define-fun |s400#144| ((state |s400_s|)) (_ BitVec 1) (bvor (|s400#62| state) (|s400#31| state))) 
(define-fun |s400#145| ((state |s400_s|)) (_ BitVec 1) (bvand (|s400#135| state) (|s400#144| state))) 
(define-fun |s400#146| ((state |s400_s|)) (_ BitVec 1) (bvor (|s400#84| state) (|s400#31| state))) 
(define-fun |s400#147| ((state |s400_s|)) (_ BitVec 1) (bvand (|s400#145| state) (|s400#146| state))) 
(define-fun |s400#148| ((state |s400_s|)) (_ BitVec 1) (bvnot (|s400#147| state))) 
(define-fun |s400#149| ((state |s400_s|)) (_ BitVec 1) (bvand (|s400#31| state) (|s400#62| state))) 
(define-fun |s400#150| ((state |s400_s|)) (_ BitVec 1) (bvand (|s400#149| state) (|s400#47| state))) 
(define-fun |s400#151| ((state |s400_s|)) (_ BitVec 1) (bvand (|s400#150| state) (ite (|s400#18| state) #b1 #b0))) 
(define-fun |s400#152| ((state |s400_s|)) (_ BitVec 1) (bvnot (|s400#151| state))) 
(define-fun |s400#153| ((state |s400_s|)) (_ BitVec 1) (bvand (|s400#152| state) (ite (|s400#27| state) #b1 #b0))) 
(define-fun |s400#154| ((state |s400_s|)) (_ BitVec 1) (bvor (|s400#148| state) (|s400#153| state))) 
(define-fun |s400#155| ((state |s400_s|)) (_ BitVec 1) (bvnot (|s400#154| state))) 
(define-fun |s400#156| ((state |s400_s|)) (_ BitVec 1) (bvor (|s400#107| state) (|s400#47| state))) 
(define-fun |s400#157| ((state |s400_s|)) (_ BitVec 1) (bvor (|s400#156| state) (|s400#42| state))) 
(define-fun |s400#158| ((state |s400_s|)) (_ BitVec 1) (bvnot (|s400#157| state))) 
(define-fun |s400#159| ((state |s400_s|)) (_ BitVec 1) (bvor (|s400#158| state) (ite (|s400#16| state) #b1 #b0))) 
(define-fun |s400#160| ((state |s400_s|)) (_ BitVec 1) (bvand (|s400#158| state) (ite (|s400#16| state) #b1 #b0))) 
(define-fun |s400#161| ((state |s400_s|)) (_ BitVec 1) (bvnot (|s400#160| state))) 
(define-fun |s400#162| ((state |s400_s|)) (_ BitVec 1) (bvand (|s400#159| state) (|s400#161| state))) 
(define-fun |s400#163| ((state |s400_s|)) (_ BitVec 1) (bvnot (|s400#162| state))) 
(define-fun |s400#164| ((state |s400_s|)) (_ BitVec 1) (bvor (ite (|s400#1| state) #b1 #b0) (|s400#163| state))) 
(define-fun |s400#165| ((state |s400_s|)) (_ BitVec 1) (bvor (|s400#164| state) (|s400#123| state))) 
(define-fun |s400#166| ((state |s400_s|)) (_ BitVec 1) (bvnot (|s400#165| state))) 
(define-fun |s400#167| ((state |s400_s|)) (_ BitVec 1) (bvor (|s400#107| state) (|s400#42| state))) 
(define-fun |s400#168| ((state |s400_s|)) (_ BitVec 1) (bvnot (|s400#167| state))) 
(define-fun |s400#169| ((state |s400_s|)) (_ BitVec 1) (bvor (|s400#168| state) (ite (|s400#17| state) #b1 #b0))) 
(define-fun |s400#170| ((state |s400_s|)) (_ BitVec 1) (bvand (|s400#168| state) (ite (|s400#17| state) #b1 #b0))) 
(define-fun |s400#171| ((state |s400_s|)) (_ BitVec 1) (bvnot (|s400#170| state))) 
(define-fun |s400#172| ((state |s400_s|)) (_ BitVec 1) (bvand (|s400#169| state) (|s400#171| state))) 
(define-fun |s400#173| ((state |s400_s|)) (_ BitVec 1) (bvnot (|s400#172| state))) 
(define-fun |s400#174| ((state |s400_s|)) (_ BitVec 1) (bvor (ite (|s400#1| state) #b1 #b0) (|s400#173| state))) 
(define-fun |s400#175| ((state |s400_s|)) (_ BitVec 1) (bvor (|s400#174| state) (|s400#123| state))) 
(define-fun |s400#176| ((state |s400_s|)) (_ BitVec 1) (bvnot (|s400#175| state))) 
(define-fun |s400#177| ((state |s400_s|)) (_ BitVec 1) (bvnot (ite (|s400#9| state) #b1 #b0))) 
(define-fun |s400#178| ((state |s400_s|)) (_ BitVec 1) (bvnot (ite (|s400#14| state) #b1 #b0))) 
(define-fun |s400#179| ((state |s400_s|)) (_ BitVec 1) (bvor (|s400#177| state) (|s400#178| state))) 
(define-fun |s400#180| ((state |s400_s|)) (_ BitVec 1) (bvor (ite (|s400#9| state) #b1 #b0) (ite (|s400#14| state) #b1 #b0))) 
(define-fun |s400#181| ((state |s400_s|)) (_ BitVec 1) (bvand (|s400#179| state) (|s400#180| state))) 
(define-fun |s400#182| ((state |s400_s|)) (_ BitVec 1) (bvand (|s400#29| state) (|s400#181| state))) 
(define-fun |s400#183| ((state |s400_s|)) (_ BitVec 1) (bvnot (|s400#107| state))) 
(define-fun |s400#184| ((state |s400_s|)) (_ BitVec 1) (bvor (|s400#183| state) (ite (|s400#18| state) #b1 #b0))) 
(define-fun |s400#185| ((state |s400_s|)) (_ BitVec 1) (bvand (|s400#183| state) (ite (|s400#18| state) #b1 #b0))) 
(define-fun |s400#186| ((state |s400_s|)) (_ BitVec 1) (bvnot (|s400#185| state))) 
(define-fun |s400#187| ((state |s400_s|)) (_ BitVec 1) (bvand (|s400#184| state) (|s400#186| state))) 
(define-fun |s400#188| ((state |s400_s|)) (_ BitVec 1) (bvnot (|s400#187| state))) 
(define-fun |s400#189| ((state |s400_s|)) (_ BitVec 1) (bvor (ite (|s400#1| state) #b1 #b0) (|s400#188| state))) 
(define-fun |s400#190| ((state |s400_s|)) (_ BitVec 1) (bvor (|s400#189| state) (|s400#123| state))) 
(define-fun |s400#191| ((state |s400_s|)) (_ BitVec 1) (bvnot (|s400#190| state))) 
(define-fun |s400#192| ((state |s400_s|)) (_ BitVec 1) (bvor (|s400#104| state) (|s400#78| state))) 
(define-fun |s400#193| ((state |s400_s|)) (_ BitVec 1) (bvnot (ite (|s400#21| state) #b1 #b0))) 
(define-fun |s400#194| ((state |s400_s|)) (_ BitVec 1) (bvor (|s400#192| state) (|s400#193| state))) 
(define-fun |s400#195| ((state |s400_s|)) (_ BitVec 1) (bvnot (ite (|s400#22| state) #b1 #b0))) 
(define-fun |s400#196| ((state |s400_s|)) (_ BitVec 1) (bvor (|s400#194| state) (|s400#195| state))) 
(define-fun |s400#197| ((state |s400_s|)) (_ BitVec 1) (bvnot (|s400#196| state))) 
(define-fun |s400#198| ((state |s400_s|)) (_ BitVec 1) (bvor (|s400#197| state) (ite (|s400#19| state) #b1 #b0))) 
(define-fun |s400#199| ((state |s400_s|)) (_ BitVec 1) (bvand (|s400#197| state) (ite (|s400#19| state) #b1 #b0))) 
(define-fun |s400#200| ((state |s400_s|)) (_ BitVec 1) (bvnot (|s400#199| state))) 
(define-fun |s400#201| ((state |s400_s|)) (_ BitVec 1) (bvand (|s400#198| state) (|s400#200| state))) 
(define-fun |s400#202| ((state |s400_s|)) (_ BitVec 1) (bvnot (|s400#201| state))) 
(define-fun |s400#203| ((state |s400_s|)) (_ BitVec 1) (bvor (ite (|s400#1| state) #b1 #b0) (|s400#202| state))) 
(define-fun |s400#204| ((state |s400_s|)) (_ BitVec 1) (bvor (|s400#203| state) (|s400#183| state))) 
(define-fun |s400#205| ((state |s400_s|)) (_ BitVec 1) (bvnot (|s400#204| state))) 
(define-fun |s400#206| ((state |s400_s|)) (_ BitVec 1) (bvor (|s400#104| state) (|s400#193| state))) 
(define-fun |s400#207| ((state |s400_s|)) (_ BitVec 1) (bvor (|s400#206| state) (|s400#195| state))) 
(define-fun |s400#208| ((state |s400_s|)) (_ BitVec 1) (bvnot (|s400#207| state))) 
(define-fun |s400#209| ((state |s400_s|)) (_ BitVec 1) (bvor (|s400#208| state) (ite (|s400#20| state) #b1 #b0))) 
(define-fun |s400#210| ((state |s400_s|)) (_ BitVec 1) (bvand (|s400#208| state) (ite (|s400#20| state) #b1 #b0))) 
(define-fun |s400#211| ((state |s400_s|)) (_ BitVec 1) (bvnot (|s400#210| state))) 
(define-fun |s400#212| ((state |s400_s|)) (_ BitVec 1) (bvand (|s400#209| state) (|s400#211| state))) 
(define-fun |s400#213| ((state |s400_s|)) (_ BitVec 1) (bvnot (|s400#212| state))) 
(define-fun |s400#214| ((state |s400_s|)) (_ BitVec 1) (bvor (ite (|s400#1| state) #b1 #b0) (|s400#213| state))) 
(define-fun |s400#215| ((state |s400_s|)) (_ BitVec 1) (bvor (|s400#214| state) (|s400#183| state))) 
(define-fun |s400#216| ((state |s400_s|)) (_ BitVec 1) (bvnot (|s400#215| state))) 
(define-fun |s400#217| ((state |s400_s|)) (_ BitVec 1) (bvor (|s400#104| state) (|s400#195| state))) 
(define-fun |s400#218| ((state |s400_s|)) (_ BitVec 1) (bvnot (|s400#217| state))) 
(define-fun |s400#219| ((state |s400_s|)) (_ BitVec 1) (bvor (|s400#218| state) (ite (|s400#21| state) #b1 #b0))) 
(define-fun |s400#220| ((state |s400_s|)) (_ BitVec 1) (bvand (|s400#218| state) (ite (|s400#21| state) #b1 #b0))) 
(define-fun |s400#221| ((state |s400_s|)) (_ BitVec 1) (bvnot (|s400#220| state))) 
(define-fun |s400#222| ((state |s400_s|)) (_ BitVec 1) (bvand (|s400#219| state) (|s400#221| state))) 
(define-fun |s400#223| ((state |s400_s|)) (_ BitVec 1) (bvnot (|s400#222| state))) 
(define-fun |s400#224| ((state |s400_s|)) (_ BitVec 1) (bvor (ite (|s400#1| state) #b1 #b0) (|s400#223| state))) 
(define-fun |s400#225| ((state |s400_s|)) (_ BitVec 1) (bvor (|s400#224| state) (|s400#183| state))) 
(define-fun |s400#226| ((state |s400_s|)) (_ BitVec 1) (bvnot (|s400#225| state))) 
(define-fun |s400#227| ((state |s400_s|)) (_ BitVec 1) (bvor (|s400#103| state) (ite (|s400#22| state) #b1 #b0))) 
(define-fun |s400#228| ((state |s400_s|)) (_ BitVec 1) (bvand (|s400#103| state) (ite (|s400#22| state) #b1 #b0))) 
(define-fun |s400#229| ((state |s400_s|)) (_ BitVec 1) (bvnot (|s400#228| state))) 
(define-fun |s400#230| ((state |s400_s|)) (_ BitVec 1) (bvand (|s400#227| state) (|s400#229| state))) 
(define-fun |s400#231| ((state |s400_s|)) (_ BitVec 1) (bvnot (|s400#230| state))) 
(define-fun |s400#232| ((state |s400_s|)) (_ BitVec 1) (bvor (ite (|s400#1| state) #b1 #b0) (|s400#231| state))) 
(define-fun |s400#233| ((state |s400_s|)) (_ BitVec 1) (bvor (|s400#232| state) (|s400#183| state))) 
(define-fun |s400#234| ((state |s400_s|)) (_ BitVec 1) (bvnot (|s400#233| state))) 
(define-fun |s400#235| ((state |s400_s|)) (_ BitVec 1) (bvnot (ite (|s400#24| state) #b1 #b0))) 
(define-fun |s400#236| ((state |s400_s|)) (_ BitVec 1) (bvnot (ite (|s400#25| state) #b1 #b0))) 
(define-fun |s400#237| ((state |s400_s|)) (_ BitVec 1) (bvor (|s400#235| state) (|s400#236| state))) 
(define-fun |s400#238| ((state |s400_s|)) (_ BitVec 1) (bvnot (ite (|s400#26| state) #b1 #b0))) 
(define-fun |s400#239| ((state |s400_s|)) (_ BitVec 1) (bvor (|s400#237| state) (|s400#238| state))) 
(define-fun |s400#240| ((state |s400_s|)) (_ BitVec 1) (bvnot (|s400#239| state))) 
(define-fun |s400#241| ((state |s400_s|)) (_ BitVec 1) (bvor (|s400#240| state) (ite (|s400#23| state) #b1 #b0))) 
(define-fun |s400#242| ((state |s400_s|)) (_ BitVec 1) (bvand (|s400#240| state) (ite (|s400#23| state) #b1 #b0))) 
(define-fun |s400#243| ((state |s400_s|)) (_ BitVec 1) (bvnot (|s400#242| state))) 
(define-fun |s400#244| ((state |s400_s|)) (_ BitVec 1) (bvand (|s400#241| state) (|s400#243| state))) 
(define-fun |s400#245| ((state |s400_s|)) (_ BitVec 1) (bvnot (|s400#244| state))) 
(define-fun |s400#246| ((state |s400_s|)) (_ BitVec 1) (bvor (ite (|s400#1| state) #b1 #b0) (|s400#245| state))) 
(define-fun |s400#247| ((state |s400_s|)) (_ BitVec 1) (bvor (|s400#246| state) (|s400#102| state))) 
(define-fun |s400#248| ((state |s400_s|)) (_ BitVec 1) (bvnot (|s400#247| state))) 
(define-fun |s400#249| ((state |s400_s|)) (_ BitVec 1) (bvor (|s400#236| state) (|s400#238| state))) 
(define-fun |s400#250| ((state |s400_s|)) (_ BitVec 1) (bvnot (|s400#249| state))) 
(define-fun |s400#251| ((state |s400_s|)) (_ BitVec 1) (bvor (|s400#250| state) (ite (|s400#24| state) #b1 #b0))) 
(define-fun |s400#252| ((state |s400_s|)) (_ BitVec 1) (bvand (|s400#250| state) (ite (|s400#24| state) #b1 #b0))) 
(define-fun |s400#253| ((state |s400_s|)) (_ BitVec 1) (bvnot (|s400#252| state))) 
(define-fun |s400#254| ((state |s400_s|)) (_ BitVec 1) (bvand (|s400#251| state) (|s400#253| state))) 
(define-fun |s400#255| ((state |s400_s|)) (_ BitVec 1) (bvnot (|s400#254| state))) 
(define-fun |s400#256| ((state |s400_s|)) (_ BitVec 1) (bvor (ite (|s400#1| state) #b1 #b0) (|s400#255| state))) 
(define-fun |s400#257| ((state |s400_s|)) (_ BitVec 1) (bvor (|s400#256| state) (|s400#102| state))) 
(define-fun |s400#258| ((state |s400_s|)) (_ BitVec 1) (bvnot (|s400#257| state))) 
(define-fun |s400#259| ((state |s400_s|)) (_ BitVec 1) (bvor (ite (|s400#26| state) #b1 #b0) (ite (|s400#25| state) #b1 #b0))) 
(define-fun |s400#260| ((state |s400_s|)) (_ BitVec 1) (bvand (ite (|s400#26| state) #b1 #b0) (ite (|s400#25| state) #b1 #b0))) 
(define-fun |s400#261| ((state |s400_s|)) (_ BitVec 1) (bvnot (|s400#260| state))) 
(define-fun |s400#262| ((state |s400_s|)) (_ BitVec 1) (bvand (|s400#259| state) (|s400#261| state))) 
(define-fun |s400#263| ((state |s400_s|)) (_ BitVec 1) (bvnot (|s400#262| state))) 
(define-fun |s400#264| ((state |s400_s|)) (_ BitVec 1) (bvor (ite (|s400#1| state) #b1 #b0) (|s400#263| state))) 
(define-fun |s400#265| ((state |s400_s|)) (_ BitVec 1) (bvor (|s400#264| state) (|s400#102| state))) 
(define-fun |s400#266| ((state |s400_s|)) (_ BitVec 1) (bvnot (|s400#265| state))) 
(define-fun |s400#267| ((state |s400_s|)) (_ BitVec 1) (bvor (ite (|s400#1| state) #b1 #b0) (ite (|s400#26| state) #b1 #b0))) 
(define-fun |s400#268| ((state |s400_s|)) (_ BitVec 1) (bvor (|s400#267| state) (|s400#102| state))) 
(define-fun |s400#269| ((state |s400_s|)) (_ BitVec 1) (bvnot (|s400#268| state))) 
(define-fun |s400_a| ((state |s400_s|)) Bool (and
  (|dff_a| (|s400_h DFF_1| state))
  (|dff_a| (|s400_h DFF_2| state))
  (|dff_a| (|s400_h DFF_3| state))
  (|dff_a| (|s400_h DFF_4| state))
  (|dff_a| (|s400_h DFF_9| state))
  (|dff_a| (|s400_h DFF_5| state))
  (|dff_a| (|s400_h DFF_6| state))
  (|dff_a| (|s400_h DFF_7| state))
  (|dff_a| (|s400_h DFF_8| state))
  (|dff_a| (|s400_h DFF_10| state))
  (|dff_a| (|s400_h DFF_11| state))
  (|dff_a| (|s400_h DFF_0| state))
  (|dff_a| (|s400_h DFF_12| state))
  (|dff_a| (|s400_h DFF_13| state))
  (|dff_a| (|s400_h DFF_14| state))
  (|dff_a| (|s400_h DFF_15| state))
  (|dff_a| (|s400_h DFF_16| state))
  (|dff_a| (|s400_h DFF_17| state))
  (|dff_a| (|s400_h DFF_18| state))
  (|dff_a| (|s400_h DFF_19| state))
  (|dff_a| (|s400_h DFF_20| state))
))
(define-fun |s400_u| ((state |s400_s|)) Bool (and
  (|dff_u| (|s400_h DFF_1| state))
  (|dff_u| (|s400_h DFF_2| state))
  (|dff_u| (|s400_h DFF_3| state))
  (|dff_u| (|s400_h DFF_4| state))
  (|dff_u| (|s400_h DFF_9| state))
  (|dff_u| (|s400_h DFF_5| state))
  (|dff_u| (|s400_h DFF_6| state))
  (|dff_u| (|s400_h DFF_7| state))
  (|dff_u| (|s400_h DFF_8| state))
  (|dff_u| (|s400_h DFF_10| state))
  (|dff_u| (|s400_h DFF_11| state))
  (|dff_u| (|s400_h DFF_0| state))
  (|dff_u| (|s400_h DFF_12| state))
  (|dff_u| (|s400_h DFF_13| state))
  (|dff_u| (|s400_h DFF_14| state))
  (|dff_u| (|s400_h DFF_15| state))
  (|dff_u| (|s400_h DFF_16| state))
  (|dff_u| (|s400_h DFF_17| state))
  (|dff_u| (|s400_h DFF_18| state))
  (|dff_u| (|s400_h DFF_19| state))
  (|dff_u| (|s400_h DFF_20| state))
))
(define-fun |s400_i| ((state |s400_s|)) Bool (and
  (|dff_i| (|s400_h DFF_1| state))
  (|dff_i| (|s400_h DFF_2| state))
  (|dff_i| (|s400_h DFF_3| state))
  (|dff_i| (|s400_h DFF_4| state))
  (|dff_i| (|s400_h DFF_9| state))
  (|dff_i| (|s400_h DFF_5| state))
  (|dff_i| (|s400_h DFF_6| state))
  (|dff_i| (|s400_h DFF_7| state))
  (|dff_i| (|s400_h DFF_8| state))
  (|dff_i| (|s400_h DFF_10| state))
  (|dff_i| (|s400_h DFF_11| state))
  (|dff_i| (|s400_h DFF_0| state))
  (|dff_i| (|s400_h DFF_12| state))
  (|dff_i| (|s400_h DFF_13| state))
  (|dff_i| (|s400_h DFF_14| state))
  (|dff_i| (|s400_h DFF_15| state))
  (|dff_i| (|s400_h DFF_16| state))
  (|dff_i| (|s400_h DFF_17| state))
  (|dff_i| (|s400_h DFF_18| state))
  (|dff_i| (|s400_h DFF_19| state))
  (|dff_i| (|s400_h DFF_20| state))
))
(define-fun |s400_h| ((state |s400_s|)) Bool (and
  (= (|s400_is| state) (|dff_is| (|s400_h DFF_1| state)))
  (= (|s400#0| state) (|dff_n CK| (|s400_h DFF_1| state))) 
  (= (= ((_ extract 0 0) (|s400#35| state)) #b1) (|dff_n D| (|s400_h DFF_1| state))) 
  (= (|s400#15| state) (|dff_n Q| (|s400_h DFF_1| state))) 
  (= (|s400_is| state) (|dff_is| (|s400_h DFF_2| state)))
  (= (|s400#0| state) (|dff_n CK| (|s400_h DFF_2| state))) 
  (= (= ((_ extract 0 0) (|s400#44| state)) #b1) (|dff_n D| (|s400_h DFF_2| state))) 
  (= (|s400#13| state) (|dff_n Q| (|s400_h DFF_2| state))) 
  (= (|s400_is| state) (|dff_is| (|s400_h DFF_3| state)))
  (= (|s400#0| state) (|dff_n CK| (|s400_h DFF_3| state))) 
  (= (= ((_ extract 0 0) (|s400#81| state)) #b1) (|dff_n D| (|s400_h DFF_3| state))) 
  (= (|s400#11| state) (|dff_n Q| (|s400_h DFF_3| state))) 
  (= (|s400_is| state) (|dff_is| (|s400_h DFF_4| state)))
  (= (|s400#0| state) (|dff_n CK| (|s400_h DFF_4| state))) 
  (= (= ((_ extract 0 0) (|s400#93| state)) #b1) (|dff_n D| (|s400_h DFF_4| state))) 
  (= (|s400#7| state) (|dff_n Q| (|s400_h DFF_4| state))) 
  (= (|s400_is| state) (|dff_is| (|s400_h DFF_9| state)))
  (= (|s400#0| state) (|dff_n CK| (|s400_h DFF_9| state))) 
  (= (= ((_ extract 0 0) (|s400#125| state)) #b1) (|dff_n D| (|s400_h DFF_9| state))) 
  (= (|s400#28| state) (|dff_n Q| (|s400_h DFF_9| state))) 
  (= (|s400_is| state) (|dff_is| (|s400_h DFF_5| state)))
  (= (|s400#0| state) (|dff_n CK| (|s400_h DFF_5| state))) 
  (= (= ((_ extract 0 0) (|s400#133| state)) #b1) (|dff_n D| (|s400_h DFF_5| state))) 
  (= (|s400#6| state) (|dff_n Q| (|s400_h DFF_5| state))) 
  (= (|s400_is| state) (|dff_is| (|s400_h DFF_6| state)))
  (= (|s400#0| state) (|dff_n CK| (|s400_h DFF_6| state))) 
  (= (= ((_ extract 0 0) (|s400#143| state)) #b1) (|dff_n D| (|s400_h DFF_6| state))) 
  (= (|s400#5| state) (|dff_n Q| (|s400_h DFF_6| state))) 
  (= (|s400_is| state) (|dff_is| (|s400_h DFF_7| state)))
  (= (|s400#0| state) (|dff_n CK| (|s400_h DFF_7| state))) 
  (= (= ((_ extract 0 0) (|s400#155| state)) #b1) (|dff_n D| (|s400_h DFF_7| state))) 
  (= (|s400#4| state) (|dff_n Q| (|s400_h DFF_7| state))) 
  (= (|s400_is| state) (|dff_is| (|s400_h DFF_8| state)))
  (= (|s400#0| state) (|dff_n CK| (|s400_h DFF_8| state))) 
  (= (= ((_ extract 0 0) (|s400#76| state)) #b1) (|dff_n D| (|s400_h DFF_8| state))) 
  (= (|s400#27| state) (|dff_n Q| (|s400_h DFF_8| state))) 
  (= (|s400_is| state) (|dff_is| (|s400_h DFF_10| state)))
  (= (|s400#0| state) (|dff_n CK| (|s400_h DFF_10| state))) 
  (= (= ((_ extract 0 0) (|s400#166| state)) #b1) (|dff_n D| (|s400_h DFF_10| state))) 
  (= (|s400#16| state) (|dff_n Q| (|s400_h DFF_10| state))) 
  (= (|s400_is| state) (|dff_is| (|s400_h DFF_11| state)))
  (= (|s400#0| state) (|dff_n CK| (|s400_h DFF_11| state))) 
  (= (= ((_ extract 0 0) (|s400#176| state)) #b1) (|dff_n D| (|s400_h DFF_11| state))) 
  (= (|s400#17| state) (|dff_n Q| (|s400_h DFF_11| state))) 
  (= (|s400_is| state) (|dff_is| (|s400_h DFF_0| state)))
  (= (|s400#0| state) (|dff_n CK| (|s400_h DFF_0| state))) 
  (= (= ((_ extract 0 0) (|s400#182| state)) #b1) (|dff_n D| (|s400_h DFF_0| state))) 
  (= (|s400#14| state) (|dff_n Q| (|s400_h DFF_0| state))) 
  (= (|s400_is| state) (|dff_is| (|s400_h DFF_12| state)))
  (= (|s400#0| state) (|dff_n CK| (|s400_h DFF_12| state))) 
  (= (= ((_ extract 0 0) (|s400#191| state)) #b1) (|dff_n D| (|s400_h DFF_12| state))) 
  (= (|s400#18| state) (|dff_n Q| (|s400_h DFF_12| state))) 
  (= (|s400_is| state) (|dff_is| (|s400_h DFF_13| state)))
  (= (|s400#0| state) (|dff_n CK| (|s400_h DFF_13| state))) 
  (= (= ((_ extract 0 0) (|s400#205| state)) #b1) (|dff_n D| (|s400_h DFF_13| state))) 
  (= (|s400#19| state) (|dff_n Q| (|s400_h DFF_13| state))) 
  (= (|s400_is| state) (|dff_is| (|s400_h DFF_14| state)))
  (= (|s400#0| state) (|dff_n CK| (|s400_h DFF_14| state))) 
  (= (= ((_ extract 0 0) (|s400#216| state)) #b1) (|dff_n D| (|s400_h DFF_14| state))) 
  (= (|s400#20| state) (|dff_n Q| (|s400_h DFF_14| state))) 
  (= (|s400_is| state) (|dff_is| (|s400_h DFF_15| state)))
  (= (|s400#0| state) (|dff_n CK| (|s400_h DFF_15| state))) 
  (= (= ((_ extract 0 0) (|s400#226| state)) #b1) (|dff_n D| (|s400_h DFF_15| state))) 
  (= (|s400#21| state) (|dff_n Q| (|s400_h DFF_15| state))) 
  (= (|s400_is| state) (|dff_is| (|s400_h DFF_16| state)))
  (= (|s400#0| state) (|dff_n CK| (|s400_h DFF_16| state))) 
  (= (= ((_ extract 0 0) (|s400#234| state)) #b1) (|dff_n D| (|s400_h DFF_16| state))) 
  (= (|s400#22| state) (|dff_n Q| (|s400_h DFF_16| state))) 
  (= (|s400_is| state) (|dff_is| (|s400_h DFF_17| state)))
  (= (|s400#0| state) (|dff_n CK| (|s400_h DFF_17| state))) 
  (= (= ((_ extract 0 0) (|s400#248| state)) #b1) (|dff_n D| (|s400_h DFF_17| state))) 
  (= (|s400#23| state) (|dff_n Q| (|s400_h DFF_17| state))) 
  (= (|s400_is| state) (|dff_is| (|s400_h DFF_18| state)))
  (= (|s400#0| state) (|dff_n CK| (|s400_h DFF_18| state))) 
  (= (= ((_ extract 0 0) (|s400#258| state)) #b1) (|dff_n D| (|s400_h DFF_18| state))) 
  (= (|s400#24| state) (|dff_n Q| (|s400_h DFF_18| state))) 
  (= (|s400_is| state) (|dff_is| (|s400_h DFF_19| state)))
  (= (|s400#0| state) (|dff_n CK| (|s400_h DFF_19| state))) 
  (= (= ((_ extract 0 0) (|s400#266| state)) #b1) (|dff_n D| (|s400_h DFF_19| state))) 
  (= (|s400#25| state) (|dff_n Q| (|s400_h DFF_19| state))) 
  (= (|s400_is| state) (|dff_is| (|s400_h DFF_20| state)))
  (= (|s400#0| state) (|dff_n CK| (|s400_h DFF_20| state))) 
  (= (= ((_ extract 0 0) (|s400#269| state)) #b1) (|dff_n D| (|s400_h DFF_20| state))) 
  (= (|s400#26| state) (|dff_n Q| (|s400_h DFF_20| state))) 
  (|dff_h| (|s400_h DFF_1| state))
  (|dff_h| (|s400_h DFF_2| state))
  (|dff_h| (|s400_h DFF_3| state))
  (|dff_h| (|s400_h DFF_4| state))
  (|dff_h| (|s400_h DFF_9| state))
  (|dff_h| (|s400_h DFF_5| state))
  (|dff_h| (|s400_h DFF_6| state))
  (|dff_h| (|s400_h DFF_7| state))
  (|dff_h| (|s400_h DFF_8| state))
  (|dff_h| (|s400_h DFF_10| state))
  (|dff_h| (|s400_h DFF_11| state))
  (|dff_h| (|s400_h DFF_0| state))
  (|dff_h| (|s400_h DFF_12| state))
  (|dff_h| (|s400_h DFF_13| state))
  (|dff_h| (|s400_h DFF_14| state))
  (|dff_h| (|s400_h DFF_15| state))
  (|dff_h| (|s400_h DFF_16| state))
  (|dff_h| (|s400_h DFF_17| state))
  (|dff_h| (|s400_h DFF_18| state))
  (|dff_h| (|s400_h DFF_19| state))
  (|dff_h| (|s400_h DFF_20| state))
))
(define-fun |s400_t| ((state |s400_s|) (next_state |s400_s|)) Bool (and
  (|dff_t| (|s400_h DFF_1| state) (|s400_h DFF_1| next_state))
  (|dff_t| (|s400_h DFF_2| state) (|s400_h DFF_2| next_state))
  (|dff_t| (|s400_h DFF_3| state) (|s400_h DFF_3| next_state))
  (|dff_t| (|s400_h DFF_4| state) (|s400_h DFF_4| next_state))
  (|dff_t| (|s400_h DFF_9| state) (|s400_h DFF_9| next_state))
  (|dff_t| (|s400_h DFF_5| state) (|s400_h DFF_5| next_state))
  (|dff_t| (|s400_h DFF_6| state) (|s400_h DFF_6| next_state))
  (|dff_t| (|s400_h DFF_7| state) (|s400_h DFF_7| next_state))
  (|dff_t| (|s400_h DFF_8| state) (|s400_h DFF_8| next_state))
  (|dff_t| (|s400_h DFF_10| state) (|s400_h DFF_10| next_state))
  (|dff_t| (|s400_h DFF_11| state) (|s400_h DFF_11| next_state))
  (|dff_t| (|s400_h DFF_0| state) (|s400_h DFF_0| next_state))
  (|dff_t| (|s400_h DFF_12| state) (|s400_h DFF_12| next_state))
  (|dff_t| (|s400_h DFF_13| state) (|s400_h DFF_13| next_state))
  (|dff_t| (|s400_h DFF_14| state) (|s400_h DFF_14| next_state))
  (|dff_t| (|s400_h DFF_15| state) (|s400_h DFF_15| next_state))
  (|dff_t| (|s400_h DFF_16| state) (|s400_h DFF_16| next_state))
  (|dff_t| (|s400_h DFF_17| state) (|s400_h DFF_17| next_state))
  (|dff_t| (|s400_h DFF_18| state) (|s400_h DFF_18| next_state))
  (|dff_t| (|s400_h DFF_19| state) (|s400_h DFF_19| next_state))
  (|dff_t| (|s400_h DFF_20| state) (|s400_h DFF_20| next_state))
)) 

